outputs/sbox.cnf
p cnf 100 313
2 -1 0
3 -1 0
-2 -3 1 0
4 1 -5 0
4 -1 5 0
-4 1 5 0
-4 -1 -5 0
-3 -7 -6 0
3 7 -6 0
-3 7 6 0
3 -7 6 0
8 6 -9 0
8 -6 9 0
-8 6 9 0
-8 -6 -9 0
-7 -11 -10 0
7 11 -10 0
-7 11 10 0
7 -11 10 0
12 10 -13 0
12 -10 13 0
-12 10 13 0
-12 -10 -13 0
11 -14 0
2 -14 0
-11 -2 14 0
15 14 -16 0
15 -14 16 0
-15 14 16 0
-15 -14 -16 0
2 17 0
-2 -17 0
18 17 -19 0
18 -17 19 0
-18 17 19 0
-18 -17 -19 0
3 20 0
-3 -20 0
21 20 -22 0
21 -20 22 0
-21 20 22 0
-21 -20 -22 0
7 23 0
-7 -23 0
24 23 -25 0
24 -23 25 0
-24 23 25 0
-24 -23 -25 0
11 26 0
-11 -26 0
27 26 -28 0
27 -26 28 0
-27 26 28 0
-27 -26 -28 0
-1 -23 -29 0
1 23 -29 0
-1 23 29 0
1 -23 29 0
30 29 -31 0
30 -29 31 0
-30 29 31 0
-30 -29 -31 0
-6 -26 -32 0
6 26 -32 0
-6 26 32 0
6 -26 32 0
33 32 -34 0
33 -32 34 0
-33 32 34 0
-33 -32 -34 0
-10 -17 -35 0
10 17 -35 0
-10 17 35 0
10 -17 35 0
36 35 -37 0
36 -35 37 0
-36 35 37 0
-36 -35 -37 0
-14 -20 -38 0
14 20 -38 0
-14 20 38 0
14 -20 38 0
39 38 -40 0
39 -38 40 0
-39 38 40 0
-39 -38 -40 0
-1 41 0
-38 41 0
1 38 -41 0
42 41 -43 0
42 -41 43 0
-42 41 43 0
-42 -41 -43 0
-6 44 0
-29 44 0
6 29 -44 0
45 44 -46 0
45 -44 46 0
-45 44 46 0
-45 -44 -46 0
-10 47 0
-32 47 0
10 32 -47 0
48 47 -49 0
48 -47 49 0
-48 47 49 0
-48 -47 -49 0
-14 50 0
-35 50 0
14 35 -50 0
51 50 -52 0
51 -50 52 0
-51 50 52 0
-51 -50 -52 0
-41 -7 -53 0
41 7 -53 0
-41 7 53 0
41 -7 53 0
54 53 -55 0
54 -53 55 0
-54 53 55 0
-54 -53 -55 0
-44 -11 -56 0
44 11 -56 0
-44 11 56 0
44 -11 56 0
57 56 -58 0
57 -56 58 0
-57 56 58 0
-57 -56 -58 0
-47 -2 -59 0
47 2 -59 0
-47 2 59 0
47 -2 59 0
60 59 -61 0
60 -59 61 0
-60 59 61 0
-60 -59 -61 0
-50 -3 -62 0
50 3 -62 0
-50 3 62 0
50 -3 62 0
63 62 -64 0
63 -62 64 0
-63 62 64 0
-63 -62 -64 0
2 -65 0
3 -65 0
-2 -3 65 0
-3 -7 -66 0
3 7 -66 0
-3 7 66 0
3 -7 66 0
-7 -11 -67 0
7 11 -67 0
-7 11 67 0
7 -11 67 0
11 -68 0
2 -68 0
-11 -2 68 0
2 69 0
-2 -69 0
3 70 0
-3 -70 0
7 71 0
-7 -71 0
11 72 0
-11 -72 0
-65 -71 -73 0
65 71 -73 0
-65 71 73 0
65 -71 73 0
-66 -72 -74 0
66 72 -74 0
-66 72 74 0
66 -72 74 0
-67 -69 -75 0
67 69 -75 0
-67 69 75 0
67 -69 75 0
-68 -70 -76 0
68 70 -76 0
-68 70 76 0
68 -70 76 0
-65 77 0
-76 77 0
65 76 -77 0
-66 78 0
-73 78 0
66 73 -78 0
-67 79 0
-74 79 0
67 74 -79 0
-68 80 0
-75 80 0
68 75 -80 0
-77 -7 -81 0
77 7 -81 0
-77 7 81 0
77 -7 81 0
-78 -11 -82 0
78 11 -82 0
-78 11 82 0
78 -11 82 0
-79 -2 -83 0
79 2 -83 0
-79 2 83 0
79 -2 83 0
-80 -3 -84 0
80 3 -84 0
-80 3 84 0
80 -3 84 0
-55 -81 -85 0
55 81 -85 0
-55 81 85 0
55 -81 85 0
-58 -82 -86 0
58 82 -86 0
-58 82 86 0
58 -82 86 0
-61 -83 -87 0
61 83 -87 0
-61 83 87 0
61 -83 87 0
-64 -84 -88 0
64 84 -88 0
-64 84 88 0
64 -84 88 0
-85 89 0
-86 89 0
85 86 -89 0
-87 90 0
-88 90 0
87 88 -90 0
-89 91 0
-90 91 0
89 90 -91 0
-53 92 0
53 -92 0
-56 93 0
56 -93 0
-59 94 0
59 -94 0
-62 95 0
62 -95 0
-92 96 0
92 -96 0
-93 97 0
93 -97 0
-94 98 0
94 -98 0
-95 99 0
95 -99 0
-91 100 0
91 -100 0
-4 64 0
-64 65 0
-8 -64 0
-8 65 0
-65 66 0
-12 -65 0
-12 66 0
-66 67 0
-15 -66 0
-15 67 0
-67 68 0
-18 -67 0
-18 68 0
-68 69 0
-21 -68 0
-21 69 0
-69 70 0
-24 -69 0
-24 70 0
-70 71 0
-27 -70 0
-27 71 0
-71 72 0
-30 -71 0
-30 72 0
-72 73 0
-33 -72 0
-33 73 0
-73 74 0
-36 -73 0
-36 74 0
-74 75 0
-39 -74 0
-39 75 0
-75 76 0
-42 -75 0
-42 76 0
-76 77 0
-45 -76 0
-45 77 0
-77 78 0
-48 -77 0
-48 78 0
-78 79 0
-51 -78 0
-51 79 0
-79 80 0
-54 -79 0
-54 80 0
-80 81 0
-57 -80 0
-57 81 0
-81 82 0
-60 -81 0
-60 82 0
-63 -82 0
4 8 12 15 18 21 24 27 30 33 36 39 42 45 48 51 54 57 60 63 0
-100 0
